Route #1: 34 26 4 21 35
Route #2: 7 16 38 23 42 1 37 30 8
Route #3: 44 41 29 27 24 2
Route #4: 40 20 17 25 15 10
Route #5: 12 28 3 43 11 6
Route #6: 39 14 33 5 22 9
Route #7: 18 13 19 36 31 32
cost 1289.399169921875